Route 1: 0 2 39 67 19 77 79 45 15 0
Route 2: 0 71 52 8 29 78 5 27 0
Route 3: 0 26 48 10 22 92 65 56 17 85 72 36 0
Route 4: 0 69 61 98 14 73 41 20 70 21 46 0
Route 5: 0 94 31 23 13 53 24 34 50 12 54 25 93 0
Route 6: 0 59 89 55 28 90 44 38 66 68 60 76 47 0
Route 7: 0 74 16 75 37 7 30 91 0
Route 8: 0 42 96 99 95 6 32 82 0
Route 9: 0 18 84 83 97 35 62 9 88 3 64 81 33 0
Route 10: 0 51 100 43 49 11 58 87 1 57 86 80 0
Route 11: 0 40 63 4 0
